[[89, 90, 99, 98, 97, 96, 87, 86, 95, 94, 93, 92, 91, 83, 82, 73, 84, 85, 76, 77, 75, 74, 67, 68, 66, 65, 64, 56, 55, 57, 58, 59], [49, 50, 40, 39, 48, 46, 47, 38, 29, 37, 28, 30, 31, 19, 20, 21, 22, 23, 13, 12, 11, 10, 2, 3, 4, 14, 5, 15, 6, 7, 8, 9], [18, 17, 16, 24, 25, 26, 27, 35, 36, 44, 34, 43, 33, 32, 41, 42, 45, 54, 53, 52, 51, 60, 63, 62, 61, 69, 70, 71, 72, 81, 80, 78, 79, 88]]